c CNF file corresponding to a (partial) station packing problem.
p cnf 2102 184
2089 2090 2091 2092 2093 2094 2095 2096 2097 2098 2099 2100 2101 2102 0
-2089 -2090 0
-2089 -2091 0
-2089 -2092 0
-2089 -2093 0
-2089 -2094 0
-2089 -2095 0
-2089 -2096 0
-2089 -2097 0
-2089 -2098 0
-2089 -2099 0
-2089 -2100 0
-2089 -2101 0
-2089 -2102 0
-2090 -2091 0
-2090 -2092 0
-2090 -2093 0
-2090 -2094 0
-2090 -2095 0
-2090 -2096 0
-2090 -2097 0
-2090 -2098 0
-2090 -2099 0
-2090 -2100 0
-2090 -2101 0
-2090 -2102 0
-2091 -2092 0
-2091 -2093 0
-2091 -2094 0
-2091 -2095 0
-2091 -2096 0
-2091 -2097 0
-2091 -2098 0
-2091 -2099 0
-2091 -2100 0
-2091 -2101 0
-2091 -2102 0
-2092 -2093 0
-2092 -2094 0
-2092 -2095 0
-2092 -2096 0
-2092 -2097 0
-2092 -2098 0
-2092 -2099 0
-2092 -2100 0
-2092 -2101 0
-2092 -2102 0
-2093 -2094 0
-2093 -2095 0
-2093 -2096 0
-2093 -2097 0
-2093 -2098 0
-2093 -2099 0
-2093 -2100 0
-2093 -2101 0
-2093 -2102 0
-2094 -2095 0
-2094 -2096 0
-2094 -2097 0
-2094 -2098 0
-2094 -2099 0
-2094 -2100 0
-2094 -2101 0
-2094 -2102 0
-2095 -2096 0
-2095 -2097 0
-2095 -2098 0
-2095 -2099 0
-2095 -2100 0
-2095 -2101 0
-2095 -2102 0
-2096 -2097 0
-2096 -2098 0
-2096 -2099 0
-2096 -2100 0
-2096 -2101 0
-2096 -2102 0
-2097 -2098 0
-2097 -2099 0
-2097 -2100 0
-2097 -2101 0
-2097 -2102 0
-2098 -2099 0
-2098 -2100 0
-2098 -2101 0
-2098 -2102 0
-2099 -2100 0
-2099 -2101 0
-2099 -2102 0
-2100 -2101 0
-2100 -2102 0
-2101 -2102 0
1 2 3 4 5 6 7 8 9 10 11 12 13 14 0
-1 -2 0
-1 -3 0
-1 -4 0
-1 -5 0
-1 -6 0
-1 -7 0
-1 -8 0
-1 -9 0
-1 -10 0
-1 -11 0
-1 -12 0
-1 -13 0
-1 -14 0
-2 -3 0
-2 -4 0
-2 -5 0
-2 -6 0
-2 -7 0
-2 -8 0
-2 -9 0
-2 -10 0
-2 -11 0
-2 -12 0
-2 -13 0
-2 -14 0
-3 -4 0
-3 -5 0
-3 -6 0
-3 -7 0
-3 -8 0
-3 -9 0
-3 -10 0
-3 -11 0
-3 -12 0
-3 -13 0
-3 -14 0
-4 -5 0
-4 -6 0
-4 -7 0
-4 -8 0
-4 -9 0
-4 -10 0
-4 -11 0
-4 -12 0
-4 -13 0
-4 -14 0
-5 -6 0
-5 -7 0
-5 -8 0
-5 -9 0
-5 -10 0
-5 -11 0
-5 -12 0
-5 -13 0
-5 -14 0
-6 -7 0
-6 -8 0
-6 -9 0
-6 -10 0
-6 -11 0
-6 -12 0
-6 -13 0
-6 -14 0
-7 -8 0
-7 -9 0
-7 -10 0
-7 -11 0
-7 -12 0
-7 -13 0
-7 -14 0
-8 -9 0
-8 -10 0
-8 -11 0
-8 -12 0
-8 -13 0
-8 -14 0
-9 -10 0
-9 -11 0
-9 -12 0
-9 -13 0
-9 -14 0
-10 -11 0
-10 -12 0
-10 -13 0
-10 -14 0
-11 -12 0
-11 -13 0
-11 -14 0
-12 -13 0
-12 -14 0
-13 -14 0
